&CONTROL
   calculation      = 'relax'
   tstress          = .true.
   tprnfor          = .true.
   outdir           = './tmp'
   prefix           = 'slab_2x2'
   pseudo_dir       = '/home/james/pp/sssp_pbe'
/
&SYSTEM
   ecutwfc          = 70
   ecutrho          = 700
   occupations      = 'smearing'
   degauss          = 0.02
   smearing         = 'mp'
   input_dft        = 'PBE'
   ntyp             = 2
   nat              = 96
   ibrav            = 0
   assume_isolated  = '2D'
/
&ELECTRONS
   conv_thr         = 1.0d-08
   mixing_beta      = 0.2
   mixing_ndim     = 10
   electron_maxstep= 200
/
&IONS
   ion_dynamics     = 'bfgs'
   forc_conv_thr  = 1.0d-3
/
&CELL
/
&FCP
/
&RISM
/
ATOMIC_SPECIES
Ir 192.217 Ir_pbe_v1.2.uspp.F.UPF
O 15.999 O.pbe-n-kjpaw_psl.0.1.UPF

K_POINTS automatic
3 6 1  1 1 0

CELL_PARAMETERS angstrom
  12.891762382342  0.000000000000  0.000000000000
  0.000000000000  6.069847822000  0.000000000000
  0.000000000000  0.000000000000  41.280292084691

ATOMIC_POSITIONS angstrom
Ir  0.0000000000  0.0000000000  15.0000000003   0 0 0
Ir  3.2229405956  1.5174619553  15.0000000000   0 0 0
O   1.6114702977  2.2761929195  16.6114702979   0 0 0
O   4.8344108935  2.2761929195  16.6114702979   0 0 0
O   1.6114702977  0.7587309910  16.6114702979   0 0 0
O   4.8344108935  0.7587309910  16.6114702979   0 0 0
Ir  3.2229405956  0.0000000000  18.2229405959   0 0 0
Ir  0.0000000000  1.5174619553  18.2229405956   0 0 0
O   4.8344108932  2.2761929195  19.8344108935   0 0 0
O   1.6114702979  2.2761929195  19.8344108935   0 0 0
O   4.8344108932  0.7587309910  19.8344108935   0 0 0
O   1.6114702979  0.7587309910  19.8344108935   0 0 0
Ir  0.0000000000  0.0000000000  21.4458811915
Ir  3.2229405956  1.5174619553  21.4458811912
O   1.6114702977  2.2761929195  23.0573514891
O   4.8344108935  2.2761929195  23.0573514891
O   1.6114702977  0.7587309910  23.0573514891
O   4.8344108935  0.7587309910  23.0573514891
Ir  3.2229405956  0.0000000000  24.6688217870
Ir  0.0000000000  1.5174619553  24.6688217868
O   4.8344108932  2.2761929195  26.2802920847
O   1.6114702979  2.2761929195  26.2802920847
O   4.8344108932  0.7587309910  26.2802920847
O   1.6114702979  0.7587309910  26.2802920847
Ir  0.0000000000  3.0349239110  15.0000000003   0 0 0
Ir  3.2229405956  4.5523858663  15.0000000000   0 0 0
O   1.6114702977  5.3111168305  16.6114702979   0 0 0
O   4.8344108935  5.3111168305  16.6114702979   0 0 0
O   1.6114702977  3.7936549020  16.6114702979   0 0 0
O   4.8344108935  3.7936549020  16.6114702979   0 0 0
Ir  3.2229405956  3.0349239110  18.2229405959   0 0 0
Ir  0.0000000000  4.5523858663  18.2229405956   0 0 0
O   4.8344108932  5.3111168305  19.8344108935   0 0 0
O   1.6114702979  5.3111168305  19.8344108935   0 0 0
O   4.8344108932  3.7936549020  19.8344108935   0 0 0
O   1.6114702979  3.7936549020  19.8344108935   0 0 0
Ir  0.0000000000  3.0349239110  21.4458811915
Ir  3.2229405956  4.5523858663  21.4458811912
O   1.6114702977  5.3111168305  23.0573514891
O   4.8344108935  5.3111168305  23.0573514891
O   1.6114702977  3.7936549020  23.0573514891
O   4.8344108935  3.7936549020  23.0573514891
Ir  3.2229405956  3.0349239110  24.6688217870
Ir  0.0000000000  4.5523858663  24.6688217868
O   4.8344108932  5.3111168305  26.2802920847
O   1.6114702979  5.3111168305  26.2802920847
O   4.8344108932  3.7936549020  26.2802920847
O   1.6114702979  3.7936549020  26.2802920847
Ir  6.4458811912  0.0000000000  15.0000000003   0 0 0
Ir  9.6688217868  1.5174619553  15.0000000000   0 0 0
O   8.0573514889  2.2761929195  16.6114702979   0 0 0
O   11.2802920847  2.2761929195  16.6114702979   0 0 0
O   8.0573514889  0.7587309910  16.6114702979   0 0 0
O   11.2802920847  0.7587309910  16.6114702979   0 0 0
Ir  9.6688217868  0.0000000000  18.2229405959   0 0 0
Ir  6.4458811912  1.5174619553  18.2229405956   0 0 0
O   11.2802920844  2.2761929195  19.8344108935   0 0 0
O   8.0573514891  2.2761929195  19.8344108935   0 0 0
O   11.2802920844  0.7587309910  19.8344108935   0 0 0
O   8.0573514891  0.7587309910  19.8344108935   0 0 0
Ir  6.4458811912  0.0000000000  21.4458811915
Ir  9.6688217868  1.5174619553  21.4458811912
O   8.0573514889  2.2761929195  23.0573514891
O   11.2802920847  2.2761929195  23.0573514891
O   8.0573514889  0.7587309910  23.0573514891
O   11.2802920847  0.7587309910  23.0573514891
Ir  9.6688217868  0.0000000000  24.6688217870
Ir  6.4458811912  1.5174619553  24.6688217868
O   11.2802920844  2.2761929195  26.2802920847
O   8.0573514891  2.2761929195  26.2802920847
O   11.2802920844  0.7587309910  26.2802920847
O   8.0573514891  0.7587309910  26.2802920847
Ir  6.4458811912  3.0349239110  15.0000000003   0 0 0
Ir  9.6688217868  4.5523858663  15.0000000000   0 0 0
O   8.0573514889  5.3111168305  16.6114702979   0 0 0
O   11.2802920847  5.3111168305  16.6114702979   0 0 0
O   8.0573514889  3.7936549020  16.6114702979   0 0 0
O   11.2802920847  3.7936549020  16.6114702979   0 0 0
Ir  9.6688217868  3.0349239110  18.2229405959   0 0 0
Ir  6.4458811912  4.5523858663  18.2229405956   0 0 0
O   11.2802920844  5.3111168305  19.8344108935   0 0 0
O   8.0573514891  5.3111168305  19.8344108935   0 0 0
O   11.2802920844  3.7936549020  19.8344108935   0 0 0
O   8.0573514891  3.7936549020  19.8344108935   0 0 0
Ir  6.4458811912  3.0349239110  21.4458811915
Ir  9.6688217868  4.5523858663  21.4458811912
O   8.0573514889  5.3111168305  23.0573514891
O   11.2802920847  5.3111168305  23.0573514891
O   8.0573514889  3.7936549020  23.0573514891
O   11.2802920847  3.7936549020  23.0573514891
Ir  9.6688217868  3.0349239110  24.6688217870
Ir  6.4458811912  4.5523858663  24.6688217868
O   11.2802920844  5.3111168305  26.2802920847
O   8.0573514891  5.3111168305  26.2802920847
O   11.2802920844  3.7936549020  26.2802920847
O   8.0573514891  3.7936549020  26.2802920847
